benchmark/results/graph__10-1000-0.10-03_3/graph__10-1000-0.10-03_3_QuintonOs_Benders_aux.lp
\ This file has been generated by DOcplex
\ ENCODING=ISO-8859-1
\Problem name: Quinton Bounded Benders_auxiliary_sub

Minimize
 obj: 0.000920810313 pi_nr_a0 + 0.002692709425 pi_nr_a1
      + 0.001322021348 pi_nr_a2 + 0.001738624836 pi_nr_a3
      + 0.001243402850 pi_nr_a4 + 0.002680660383 pi_nr_a5
      + 0.001068214139 pi_nr_a6 + 0.001442099382 pi_nr_a7
      + 0.001149216117 pi_nr_a8 + 0.001181814849 pi_nr_a9 + pi_p_a4_a3
      + pi_p_a5_a6 + pi_p_a8_a1 + pi_p_a5_a2 + pi_p_a7_a7 + pi_p_a0_a1
      + pi_p_a6_a0 + pi_p_a5_a4 + pi_p_a6_a6
      + 681.570153041574 pi_d_a0_a1_proc_1 + 667.986421398278 pi_d_a1_a0_proc_1
      + 650 pi_d_a0_a2_proc_1 + 637 pi_d_a2_a0_proc_1
      + 1114.874848172476 pi_d_a0_a3_proc_1
      + 1136.624845071521 pi_d_a3_a0_proc_1
      + 1274.000572204590 pi_d_a0_a4_proc_1
      + 1298.999427795410 pi_d_a4_a0_proc_1
      + 1273.346431702375 pi_d_a0_a5_proc_1
      + 1298.333129972219 pi_d_a5_a0_proc_1
      + 1286.187852435247 pi_d_a0_a6_proc_1
      + 1286.033980793818 pi_d_a6_a0_proc_1 + 163.249947495396 pi_d_a0_a7_proc_1
      + 159.250052502040 pi_d_a7_a0_proc_1 + 1141.702560261940 pi_d_a0_a8_proc_1
      + 1119.610987499007 pi_d_a8_a0_proc_1 + 637.091600418094 pi_d_a0_a9_proc_1
      + 649.908399581906 pi_d_a9_a0_proc_1 + 1275.653188438472 pi_d_a1_a2_proc_2
      + 2550.527785511893 pi_d_a1_a2_proc_0
      + 1317.007917805073 pi_d_a1_a2_proc_1
      + 1277.193927268180 pi_d_a2_a1_proc_2
      + 2552.068524341601 pi_d_a2_a1_proc_0
      + 1318.548656634780 pi_d_a2_a1_proc_1
      + 1435.927730171507 pi_d_a1_a3_proc_0
      + 1809.907555708683 pi_d_a1_a3_proc_1
      + 1416.168886437991 pi_d_a3_a1_proc_0
      + 1790.148711975167 pi_d_a3_a1_proc_1
      + 1758.172430990803 pi_d_a1_a4_proc_2
      + 1425.547027914514 pi_d_a1_a4_proc_0
      + 1960.277160282548 pi_d_a1_a4_proc_1
      + 1759.174684865559 pi_d_a4_a1_proc_2
      + 1426.549281789270 pi_d_a4_a1_proc_0
      + 1961.279414157304 pi_d_a4_a1_proc_1
      + 1595.063681227806 pi_d_a1_a5_proc_2
      + 1584.598497463930 pi_d_a1_a5_proc_0
      + 1957.258191431704 pi_d_a1_a5_proc_1
      + 1600.783434478846 pi_d_a5_a1_proc_2
      + 1590.318250714970 pi_d_a5_a1_proc_0
      + 1962.977944682744 pi_d_a5_a1_proc_1 + 763.417503263081 pi_d_a1_a6_proc_2
      + 2409.475333752516 pi_d_a1_a6_proc_0
      + 1954.280224259487 pi_d_a1_a6_proc_1 + 775.635462413025 pi_d_a6_a1_proc_2
      + 2421.693292902461 pi_d_a6_a1_proc_0
      + 1966.498183409431 pi_d_a6_a1_proc_1
      + 2397.958822384403 pi_d_a1_a7_proc_0 + 842.938954675018 pi_d_a1_a7_proc_1
      + 2383.137487471655 pi_d_a7_a1_proc_0 + 828.117619762271 pi_d_a7_a1_proc_1
      + 1432.359941737938 pi_d_a1_a8_proc_0
      + 1816.153621792063 pi_d_a1_a8_proc_1
      + 1409.922820354611 pi_d_a8_a1_proc_0
      + 1793.716500408736 pi_d_a8_a1_proc_1
      + 1269.288777532907 pi_d_a1_a9_proc_2
      + 1310.643506899507 pi_d_a1_a9_proc_1
      + 1283.558338173746 pi_d_a9_a1_proc_2
      + 1324.913067540346 pi_d_a9_a1_proc_1
      + 1450.216400407793 pi_d_a2_a3_proc_0
      + 1771.716093651790 pi_d_a2_a3_proc_1
      + 1444.283906348210 pi_d_a3_a2_proc_0
      + 1765.783599592207 pi_d_a3_a2_proc_1
      + 1765.692162774853 pi_d_a2_a4_proc_2
      + 1444.192162625143 pi_d_a2_a4_proc_0
      + 1926.442162699998 pi_d_a2_a4_proc_1
      + 1771.807837374857 pi_d_a4_a2_proc_2
      + 1450.307837225147 pi_d_a4_a2_proc_0
      + 1932.557837300002 pi_d_a4_a2_proc_1
      + 1620.493325933814 pi_d_a2_a5_proc_2
      + 1621.153545096517 pi_d_a2_a5_proc_0
      + 1941.333106771111 pi_d_a2_a5_proc_1
      + 1595.506674066186 pi_d_a5_a2_proc_2
      + 1596.166893228889 pi_d_a5_a2_proc_0
      + 1916.346454903483 pi_d_a5_a2_proc_1 + 773.387368840097 pi_d_a2_a6_proc_2
      + 2430.570602256112 pi_d_a2_a6_proc_0
      + 1922.895360469903 pi_d_a2_a6_proc_1 + 785.818481129356 pi_d_a6_a2_proc_2
      + 2443.001714545370 pi_d_a6_a2_proc_0
      + 1935.326472759162 pi_d_a6_a2_proc_1
      + 2419.375000001269 pi_d_a2_a7_proc_0 + 811.874999998705 pi_d_a2_a7_proc_1
      + 2404.125000001295 pi_d_a7_a2_proc_0 + 796.624999998731 pi_d_a7_a2_proc_1
      + 1453.267828032782 pi_d_a2_a8_proc_0
      + 1784.581375793729 pi_d_a2_a8_proc_1
      + 1431.418624206271 pi_d_a8_a2_proc_0
      + 1762.732171967218 pi_d_a8_a2_proc_1
      + 1289.625000000000 pi_d_a2_a9_proc_2
      + 1289.625000000000 pi_d_a2_a9_proc_1
      + 1283.375000000000 pi_d_a9_a2_proc_2
      + 1283.375000000000 pi_d_a9_a2_proc_1 + 324.750147342688 pi_d_a3_a4_proc_0
      + 2414.499840661540 pi_d_a3_a4_proc_1 + 319.250159263605 pi_d_a4_a3_proc_0
      + 2408.999852582458 pi_d_a4_a3_proc_1 + 487.811183194455 pi_d_a3_a5_proc_0
      + 2415.490438113047 pi_d_a3_a5_proc_1 + 479.009561886953 pi_d_a5_a3_proc_0
      + 2406.688816805545 pi_d_a5_a3_proc_1
      + 1322.316744635356 pi_d_a3_a6_proc_0
      + 2422.141196093144 pi_d_a3_a6_proc_1
      + 1300.755878922129 pi_d_a6_a3_proc_0
      + 2400.580330379918 pi_d_a6_a3_proc_1
      + 1289.621244624711 pi_d_a3_a7_proc_0
      + 1289.620937866144 pi_d_a3_a7_proc_1
      + 1283.379062133856 pi_d_a7_a3_proc_0
      + 1283.378755375289 pi_d_a7_a3_proc_1 + 313.641636371613 pi_d_a3_a8_proc_0
      + 2252.454877376556 pi_d_a3_a8_proc_1 + 320.545122623443 pi_d_a8_a3_proc_0
      + 2259.358363628387 pi_d_a8_a3_proc_1
      + 1771.874274417409 pi_d_a3_a9_proc_1
      + 1765.625418826588 pi_d_a9_a3_proc_1
      + 2093.693460538634 pi_d_a4_a5_proc_2 + 486.853679551627 pi_d_a4_a5_proc_0
      + 2575.283241301076 pi_d_a4_a5_proc_1
      + 2086.806539611076 pi_d_a5_a4_proc_2 + 479.966758624068 pi_d_a5_a4_proc_0
      + 2568.396320373518 pi_d_a5_a4_proc_1
      + 1274.116833822977 pi_d_a4_a6_proc_2
      + 1323.800067089282 pi_d_a4_a6_proc_0
      + 2584.374825377928 pi_d_a4_a6_proc_1
      + 1249.589016296186 pi_d_a6_a4_proc_2
      + 1299.272249562490 pi_d_a6_a4_proc_0
      + 2559.847007851137 pi_d_a6_a4_proc_1
      + 1273.999999927193 pi_d_a4_a7_proc_0
      + 1434.749999999485 pi_d_a4_a7_proc_1
      + 1298.999999925660 pi_d_a7_a4_proc_0
      + 1459.749999997952 pi_d_a7_a4_proc_1 + 317.625978901109 pi_d_a4_a8_proc_0
      + 2417.189526736911 pi_d_a4_a8_proc_1 + 316.560473188234 pi_d_a8_a4_proc_0
      + 2416.124021024036 pi_d_a8_a4_proc_1
      + 1779.750011530821 pi_d_a4_a9_proc_2
      + 1940.500011455966 pi_d_a4_a9_proc_1
      + 1757.749988618889 pi_d_a9_a4_proc_2
      + 1918.499988544034 pi_d_a9_a4_proc_1
      + 1108.883080086967 pi_d_a5_a6_proc_2
      + 1480.726532665684 pi_d_a5_a6_proc_0
      + 2579.230852554071 pi_d_a5_a6_proc_1
      + 1093.322769882486 pi_d_a6_a5_proc_2
      + 1465.166222461203 pi_d_a6_a5_proc_0
      + 2563.670542349589 pi_d_a6_a5_proc_1
      + 1449.510128707497 pi_d_a5_a7_proc_0
      + 1448.189690379528 pi_d_a5_a7_proc_1
      + 1446.310309620472 pi_d_a7_a5_proc_0
      + 1444.989871292503 pi_d_a7_a5_proc_1 + 474.047119810120 pi_d_a5_a8_proc_0
      + 2411.540229245661 pi_d_a5_a8_proc_1 + 482.959770754339 pi_d_a8_a5_proc_0
      + 2420.452880189880 pi_d_a8_a5_proc_1
      + 1598.500000000000 pi_d_a5_a9_proc_2
      + 1919.339780837297 pi_d_a5_a9_proc_1
      + 1617.500000000000 pi_d_a9_a5_proc_2
      + 1938.339780837297 pi_d_a9_a5_proc_1
      + 2265.351779757454 pi_d_a6_a7_proc_0
      + 1436.176537968681 pi_d_a6_a7_proc_1
      + 2286.720537046592 pi_d_a7_a6_proc_0
      + 1457.545295257820 pi_d_a7_a6_proc_1
      + 1294.129732798621 pi_d_a6_a8_proc_0
      + 2403.768038773359 pi_d_a6_a8_proc_1
      + 1319.129036241914 pi_d_a8_a6_proc_0
      + 2428.767342216652 pi_d_a8_a6_proc_1 + 771.832923211274 pi_d_a6_a9_proc_2
      + 1921.340914841080 pi_d_a6_a9_proc_1 + 787.372926758179 pi_d_a9_a6_proc_2
      + 1936.880918387985 pi_d_a9_a6_proc_1
      + 1284.668624207566 pi_d_a7_a8_proc_0
      + 1294.482171965949 pi_d_a7_a8_proc_1
      + 1278.517828034051 pi_d_a8_a7_proc_0
      + 1288.331375792434 pi_d_a8_a7_proc_1 + 808.590415953308 pi_d_a7_a9_proc_1
      + 799.909584044128 pi_d_a9_a7_proc_1 + 1761.158919647685 pi_d_a8_a9_proc_1
      + 1786.154628113261 pi_d_a9_a8_proc_1 + pi_y2_a0_proc_1
      + 0.016486660244 pi_y2_a1_proc_0 + 0.475677848196 pi_y2_a1_proc_1
      + 0.507835491560 pi_y2_a1_proc_2 + 0.000000000000 pi_y2_a2_proc_0
      + 0.500000000000 pi_y2_a2_proc_1 + 0.500000000000 pi_y2_a2_proc_2
      + 0.874999880733 pi_y2_a3_proc_0 + 0.125000119267 pi_y2_a3_proc_1
      + 0.875000000058 pi_y2_a4_proc_0 + 0.000000000000 pi_y2_a4_proc_1
      + 0.124999999942 pi_y2_a4_proc_2 + 0.749486610293 pi_y2_a5_proc_0
      + 0.000513389707 pi_y2_a5_proc_1 + 0.250000000000 pi_y2_a5_proc_2
      + 0.105531758631 pi_y2_a6_proc_0 + 0.000302553177 pi_y2_a6_proc_1
      + 0.894165688192 pi_y2_a6_proc_2 + 0.124999999999 pi_y2_a7_proc_0
      + 0.875000000001 pi_y2_a7_proc_1 + 0.878815531789 pi_y2_a8_proc_0
      + 0.121184468211 pi_y2_a8_proc_1 + 0.500000000000 pi_y2_a9_proc_1
      + 0.500000000000 pi_y2_a9_proc_2
Subject To
 c1: 0.000920810313 pi_nr_a0 + 0.003496503497 pi_nr_a1 + 0.001285347044 pi_nr_a2
     + 0.001834862385 pi_nr_a3 + 0.001302083333 pi_nr_a4
     + 0.003278688525 pi_nr_a5 + 0.001097694841 pi_nr_a6
     + 0.001418439716 pi_nr_a7 + 0.001137656428 pi_nr_a8
     + 0.001477104874 pi_nr_a9 + pi_p_a4_a3 + pi_p_a5_a6 + pi_p_a8_a1
     + pi_p_a5_a2 + pi_p_a7_a7 + pi_p_a0_a1 + pi_p_a6_a0 + pi_p_a5_a4
     + pi_p_a6_a6 + 1299 pi_d_a0_a1_proc_1 + 1274 pi_d_a1_a0_proc_1
     + 1299 pi_d_a0_a2_proc_1 + 1274 pi_d_a2_a0_proc_1 + 1274 pi_d_a0_a3_proc_1
     + 1299 pi_d_a3_a0_proc_1 + 1274 pi_d_a0_a4_proc_1 + 1299 pi_d_a4_a0_proc_1
     + 1274 pi_d_a0_a5_proc_1 + 1299 pi_d_a5_a0_proc_1 + 1299 pi_d_a0_a6_proc_1
     + 1274 pi_d_a6_a0_proc_1 + pi_d_a0_a7_proc_1 + 1299 pi_d_a0_a8_proc_1
     + 1274 pi_d_a8_a0_proc_1 + pi_d_a9_a0_proc_1 + 2572 pi_d_a1_a2_proc_0
     + 2572 pi_d_a1_a2_proc_1 + pi_d_a2_a1_proc_2 + 2573 pi_d_a2_a1_proc_0
     + 2573 pi_d_a2_a1_proc_1 + 1299 pi_d_a1_a3_proc_0 + 2585 pi_d_a1_a3_proc_1
     + 1274 pi_d_a3_a1_proc_0 + 2560 pi_d_a3_a1_proc_1 + 1274 pi_d_a1_a4_proc_2
     + 1274 pi_d_a1_a4_proc_0 + 2560 pi_d_a1_a4_proc_1 + 1299 pi_d_a4_a1_proc_2
     + 1299 pi_d_a4_a1_proc_0 + 2585 pi_d_a4_a1_proc_1 + 1274 pi_d_a1_a5_proc_2
     + 1274 pi_d_a1_a5_proc_0 + 2560 pi_d_a1_a5_proc_1 + 1299 pi_d_a5_a1_proc_2
     + 1299 pi_d_a5_a1_proc_0 + 2585 pi_d_a5_a1_proc_1 + 2572 pi_d_a1_a6_proc_0
     + 2572 pi_d_a1_a6_proc_1 + pi_d_a6_a1_proc_2 + 2573 pi_d_a6_a1_proc_0
     + 2573 pi_d_a6_a1_proc_1 + 2585 pi_d_a1_a7_proc_0 + 1299 pi_d_a1_a7_proc_1
     + 2560 pi_d_a7_a1_proc_0 + 1274 pi_d_a7_a1_proc_1 + 1299 pi_d_a1_a8_proc_0
     + 2585 pi_d_a1_a8_proc_1 + 1274 pi_d_a8_a1_proc_0 + 2560 pi_d_a8_a1_proc_1
     + 1274 pi_d_a1_a9_proc_2 + 1274 pi_d_a1_a9_proc_1 + 1299 pi_d_a9_a1_proc_2
     + 1299 pi_d_a9_a1_proc_1 + 1299 pi_d_a2_a3_proc_0 + 2585 pi_d_a2_a3_proc_1
     + 1274 pi_d_a3_a2_proc_0 + 2560 pi_d_a3_a2_proc_1 + 1274 pi_d_a2_a4_proc_2
     + 1274 pi_d_a2_a4_proc_0 + 2560 pi_d_a2_a4_proc_1 + 1299 pi_d_a4_a2_proc_2
     + 1299 pi_d_a4_a2_proc_0 + 2585 pi_d_a4_a2_proc_1 + 1299 pi_d_a2_a5_proc_2
     + 1299 pi_d_a2_a5_proc_0 + 2585 pi_d_a2_a5_proc_1 + 1274 pi_d_a5_a2_proc_2
     + 1274 pi_d_a5_a2_proc_0 + 2560 pi_d_a5_a2_proc_1 + 2572 pi_d_a2_a6_proc_0
     + 2572 pi_d_a2_a6_proc_1 + pi_d_a6_a2_proc_2 + 2573 pi_d_a6_a2_proc_0
     + 2573 pi_d_a6_a2_proc_1 + 2585 pi_d_a2_a7_proc_0 + 1299 pi_d_a2_a7_proc_1
     + 2560 pi_d_a7_a2_proc_0 + 1274 pi_d_a7_a2_proc_1 + 1299 pi_d_a2_a8_proc_0
     + 2585 pi_d_a2_a8_proc_1 + 1274 pi_d_a8_a2_proc_0 + 2560 pi_d_a8_a2_proc_1
     + 1299 pi_d_a2_a9_proc_2 + 1299 pi_d_a2_a9_proc_1 + 1274 pi_d_a9_a2_proc_2
     + 1274 pi_d_a9_a2_proc_1 + 2572 pi_d_a3_a4_proc_1 + pi_d_a4_a3_proc_0
     + 2573 pi_d_a4_a3_proc_1 + 2572 pi_d_a3_a5_proc_1 + pi_d_a5_a3_proc_0
     + 2573 pi_d_a5_a3_proc_1 + 1299 pi_d_a3_a6_proc_0 + 2585 pi_d_a3_a6_proc_1
     + 1274 pi_d_a6_a3_proc_0 + 2560 pi_d_a6_a3_proc_1 + 1299 pi_d_a3_a7_proc_0
     + 1299 pi_d_a3_a7_proc_1 + 1274 pi_d_a7_a3_proc_0 + 1274 pi_d_a7_a3_proc_1
     + 2572 pi_d_a3_a8_proc_1 + pi_d_a8_a3_proc_0 + 2573 pi_d_a8_a3_proc_1
     + 1299 pi_d_a3_a9_proc_1 + 1274 pi_d_a9_a3_proc_1 + 2573 pi_d_a4_a5_proc_2
     + pi_d_a4_a5_proc_0 + 2573 pi_d_a4_a5_proc_1 + 2572 pi_d_a5_a4_proc_2
     + 2572 pi_d_a5_a4_proc_1 + 1299 pi_d_a4_a6_proc_2 + 1299 pi_d_a4_a6_proc_0
     + 2585 pi_d_a4_a6_proc_1 + 1274 pi_d_a6_a4_proc_2 + 1274 pi_d_a6_a4_proc_0
     + 2560 pi_d_a6_a4_proc_1 + 1274 pi_d_a4_a7_proc_0 + 1274 pi_d_a4_a7_proc_1
     + 1299 pi_d_a7_a4_proc_0 + 1299 pi_d_a7_a4_proc_1 + pi_d_a4_a8_proc_0
     + 2573 pi_d_a4_a8_proc_1 + 2572 pi_d_a8_a4_proc_1 + 2585 pi_d_a4_a9_proc_2
     + 1299 pi_d_a4_a9_proc_1 + 2560 pi_d_a9_a4_proc_2 + 1274 pi_d_a9_a4_proc_1
     + 1299 pi_d_a5_a6_proc_2 + 1299 pi_d_a5_a6_proc_0 + 2585 pi_d_a5_a6_proc_1
     + 1274 pi_d_a6_a5_proc_2 + 1274 pi_d_a6_a5_proc_0 + 2560 pi_d_a6_a5_proc_1
     + 1299 pi_d_a5_a7_proc_0 + 1299 pi_d_a5_a7_proc_1 + 1274 pi_d_a7_a5_proc_0
     + 1274 pi_d_a7_a5_proc_1 + pi_d_a5_a8_proc_0 + 2573 pi_d_a5_a8_proc_1
     + 2572 pi_d_a8_a5_proc_1 + 2560 pi_d_a5_a9_proc_2 + 1274 pi_d_a5_a9_proc_1
     + 2585 pi_d_a9_a5_proc_2 + 1299 pi_d_a9_a5_proc_1 + 2560 pi_d_a6_a7_proc_0
     + 1274 pi_d_a6_a7_proc_1 + 2585 pi_d_a7_a6_proc_0 + 1299 pi_d_a7_a6_proc_1
     + 1274 pi_d_a6_a8_proc_0 + 2560 pi_d_a6_a8_proc_1 + 1299 pi_d_a8_a6_proc_0
     + 2585 pi_d_a8_a6_proc_1 + 1274 pi_d_a6_a9_proc_2 + 1274 pi_d_a6_a9_proc_1
     + 1299 pi_d_a9_a6_proc_2 + 1299 pi_d_a9_a6_proc_1 + 1299 pi_d_a7_a8_proc_0
     + 1299 pi_d_a7_a8_proc_1 + 1274 pi_d_a8_a7_proc_0 + 1274 pi_d_a8_a7_proc_1
     + pi_d_a9_a7_proc_1 + 1274 pi_d_a8_a9_proc_1 + 1299 pi_d_a9_a8_proc_1
     + pi_y2_a0_proc_1 + pi_y2_a1_proc_2 + pi_y2_a2_proc_2 + pi_y2_a3_proc_0
     + pi_y2_a4_proc_0 + pi_y2_a5_proc_0 + pi_y2_a6_proc_2 + pi_y2_a7_proc_1
     + pi_y2_a8_proc_0 + pi_y2_a9_proc_1 = 0.000325097529
 c2: pi_nr_a0 + pi_nr_a1 + pi_nr_a2 + pi_nr_a3 + pi_nr_a4 + pi_nr_a5 + pi_nr_a6
     + pi_nr_a7 + pi_nr_a8 + pi_nr_a9 - pi_y1_a0 - pi_y1_a1 - pi_y1_a2
     - pi_y1_a3 - pi_y1_a4 - pi_y1_a5 - pi_y1_a6 - pi_y1_a7 - pi_y1_a8
     - pi_y1_a9 >= 1
 c3: - pi_p_a1_a0 - pi_p_a3_a0 + pi_p_a0_a1 - pi_p_a6_a0 + pi_d_a0_a1_proc_1
     - pi_d_a1_a0_proc_1 + pi_d_a0_a2_proc_1 - pi_d_a2_a0_proc_1
     + pi_d_a0_a3_proc_1 - pi_d_a3_a0_proc_1 + pi_d_a0_a4_proc_1
     - pi_d_a4_a0_proc_1 + pi_d_a0_a5_proc_1 - pi_d_a5_a0_proc_1
     + pi_d_a0_a6_proc_1 - pi_d_a6_a0_proc_1 + pi_d_a0_a7_proc_1
     - pi_d_a7_a0_proc_1 + pi_d_a0_a8_proc_1 - pi_d_a8_a0_proc_1
     + pi_d_a0_a9_proc_1 - pi_d_a9_a0_proc_1 >= 0
 c4: 1086 pi_p_a0_a1 + 1086 pi_d_a0_a1_proc_1 + 1086 pi_d_a0_a2_proc_1
     + 1086 pi_d_a0_a3_proc_1 + 1086 pi_d_a0_a4_proc_1 + 1086 pi_d_a0_a5_proc_1
     + 1086 pi_d_a0_a6_proc_1 + 1086 pi_d_a0_a7_proc_1 + 1086 pi_d_a0_a8_proc_1
     + 1086 pi_d_a0_a9_proc_1 + pi_y1_a0 + pi_y2_a0_proc_1 >= 0
 c5: pi_p_a1_a0 + pi_p_a1_a2 - pi_p_a8_a1 - pi_p_a0_a1 - pi_d_a0_a1_proc_1
     + pi_d_a1_a0_proc_1 + pi_d_a1_a2_proc_2 + pi_d_a1_a2_proc_0
     + pi_d_a1_a2_proc_1 - pi_d_a2_a1_proc_2 - pi_d_a2_a1_proc_0
     - pi_d_a2_a1_proc_1 + pi_d_a1_a3_proc_0 + pi_d_a1_a3_proc_1
     - pi_d_a3_a1_proc_0 - pi_d_a3_a1_proc_1 + pi_d_a1_a4_proc_2
     + pi_d_a1_a4_proc_0 + pi_d_a1_a4_proc_1 - pi_d_a4_a1_proc_2
     - pi_d_a4_a1_proc_0 - pi_d_a4_a1_proc_1 + pi_d_a1_a5_proc_2
     + pi_d_a1_a5_proc_0 + pi_d_a1_a5_proc_1 - pi_d_a5_a1_proc_2
     - pi_d_a5_a1_proc_0 - pi_d_a5_a1_proc_1 + pi_d_a1_a6_proc_2
     + pi_d_a1_a6_proc_0 + pi_d_a1_a6_proc_1 - pi_d_a6_a1_proc_2
     - pi_d_a6_a1_proc_0 - pi_d_a6_a1_proc_1 + pi_d_a1_a7_proc_0
     + pi_d_a1_a7_proc_1 - pi_d_a7_a1_proc_0 - pi_d_a7_a1_proc_1
     + pi_d_a1_a8_proc_0 + pi_d_a1_a8_proc_1 - pi_d_a8_a1_proc_0
     - pi_d_a8_a1_proc_1 + pi_d_a1_a9_proc_2 + pi_d_a1_a9_proc_1
     - pi_d_a9_a1_proc_2 - pi_d_a9_a1_proc_1 >= 0
 c6: 776 pi_p_a1_a0 + 776 pi_p_a1_a2 + 776 pi_d_a1_a2_proc_0
     + 776 pi_d_a1_a3_proc_0 + 776 pi_d_a1_a4_proc_0 + 776 pi_d_a1_a5_proc_0
     + 776 pi_d_a1_a6_proc_0 + 776 pi_d_a1_a7_proc_0 + 776 pi_d_a1_a8_proc_0
     + pi_y1_a1 + pi_y2_a1_proc_0 >= 0
 c7: 531 pi_p_a1_a0 + 531 pi_p_a1_a2 + 531 pi_d_a1_a0_proc_1
     + 531 pi_d_a1_a2_proc_1 + 531 pi_d_a1_a3_proc_1 + 531 pi_d_a1_a4_proc_1
     + 531 pi_d_a1_a5_proc_1 + 531 pi_d_a1_a6_proc_1 + 531 pi_d_a1_a7_proc_1
     + 531 pi_d_a1_a8_proc_1 + 531 pi_d_a1_a9_proc_1 + pi_y1_a1
     + pi_y2_a1_proc_1 >= 0
 c8: 286 pi_p_a1_a0 + 286 pi_p_a1_a2 + 286 pi_d_a1_a2_proc_2
     + 286 pi_d_a1_a4_proc_2 + 286 pi_d_a1_a5_proc_2 + 286 pi_d_a1_a6_proc_2
     + 286 pi_d_a1_a9_proc_2 + pi_y1_a1 + pi_y2_a1_proc_2 >= 0
 c9: - pi_p_a1_a2 + pi_p_a2_a5 + pi_p_a2_a7 - pi_p_a5_a2 - pi_d_a0_a2_proc_1
     + pi_d_a2_a0_proc_1 - pi_d_a1_a2_proc_2 - pi_d_a1_a2_proc_0
     - pi_d_a1_a2_proc_1 + pi_d_a2_a1_proc_2 + pi_d_a2_a1_proc_0
     + pi_d_a2_a1_proc_1 + pi_d_a2_a3_proc_0 + pi_d_a2_a3_proc_1
     - pi_d_a3_a2_proc_0 - pi_d_a3_a2_proc_1 + pi_d_a2_a4_proc_2
     + pi_d_a2_a4_proc_0 + pi_d_a2_a4_proc_1 - pi_d_a4_a2_proc_2
     - pi_d_a4_a2_proc_0 - pi_d_a4_a2_proc_1 + pi_d_a2_a5_proc_2
     + pi_d_a2_a5_proc_0 + pi_d_a2_a5_proc_1 - pi_d_a5_a2_proc_2
     - pi_d_a5_a2_proc_0 - pi_d_a5_a2_proc_1 + pi_d_a2_a6_proc_2
     + pi_d_a2_a6_proc_0 + pi_d_a2_a6_proc_1 - pi_d_a6_a2_proc_2
     - pi_d_a6_a2_proc_0 - pi_d_a6_a2_proc_1 + pi_d_a2_a7_proc_0
     + pi_d_a2_a7_proc_1 - pi_d_a7_a2_proc_0 - pi_d_a7_a2_proc_1
     + pi_d_a2_a8_proc_0 + pi_d_a2_a8_proc_1 - pi_d_a8_a2_proc_0
     - pi_d_a8_a2_proc_1 + pi_d_a2_a9_proc_2 + pi_d_a2_a9_proc_1
     - pi_d_a9_a2_proc_2 - pi_d_a9_a2_proc_1 >= 0
 c10: 988 pi_p_a2_a5 + 988 pi_p_a2_a7 + 988 pi_d_a2_a1_proc_0
      + 988 pi_d_a2_a3_proc_0 + 988 pi_d_a2_a4_proc_0 + 988 pi_d_a2_a5_proc_0
      + 988 pi_d_a2_a6_proc_0 + 988 pi_d_a2_a7_proc_0 + 988 pi_d_a2_a8_proc_0
      + pi_y1_a2 + pi_y2_a2_proc_0 >= 0
 c11: 736 pi_p_a2_a5 + 736 pi_p_a2_a7 + 736 pi_d_a2_a0_proc_1
      + 736 pi_d_a2_a1_proc_1 + 736 pi_d_a2_a3_proc_1 + 736 pi_d_a2_a4_proc_1
      + 736 pi_d_a2_a5_proc_1 + 736 pi_d_a2_a6_proc_1 + 736 pi_d_a2_a7_proc_1
      + 736 pi_d_a2_a8_proc_1 + 736 pi_d_a2_a9_proc_1 + pi_y1_a2
      + pi_y2_a2_proc_1 >= 0
 c12: 778 pi_p_a2_a5 + 778 pi_p_a2_a7 + 778 pi_d_a2_a1_proc_2
      + 778 pi_d_a2_a4_proc_2 + 778 pi_d_a2_a5_proc_2 + 778 pi_d_a2_a6_proc_2
      + 778 pi_d_a2_a9_proc_2 + pi_y1_a2 + pi_y2_a2_proc_2 >= 0
 c13: pi_p_a3_a0 - pi_p_a4_a3 - pi_d_a0_a3_proc_1 + pi_d_a3_a0_proc_1
      - pi_d_a1_a3_proc_0 - pi_d_a1_a3_proc_1 + pi_d_a3_a1_proc_0
      + pi_d_a3_a1_proc_1 - pi_d_a2_a3_proc_0 - pi_d_a2_a3_proc_1
      + pi_d_a3_a2_proc_0 + pi_d_a3_a2_proc_1 + pi_d_a3_a4_proc_0
      + pi_d_a3_a4_proc_1 - pi_d_a4_a3_proc_0 - pi_d_a4_a3_proc_1
      + pi_d_a3_a5_proc_0 + pi_d_a3_a5_proc_1 - pi_d_a5_a3_proc_0
      - pi_d_a5_a3_proc_1 + pi_d_a3_a6_proc_0 + pi_d_a3_a6_proc_1
      - pi_d_a6_a3_proc_0 - pi_d_a6_a3_proc_1 + pi_d_a3_a7_proc_0
      + pi_d_a3_a7_proc_1 - pi_d_a7_a3_proc_0 - pi_d_a7_a3_proc_1
      + pi_d_a3_a8_proc_0 + pi_d_a3_a8_proc_1 - pi_d_a8_a3_proc_0
      - pi_d_a8_a3_proc_1 + pi_d_a3_a9_proc_1 - pi_d_a9_a3_proc_1 >= 0
 c14: 545 pi_p_a3_a0 + 545 pi_d_a3_a1_proc_0 + 545 pi_d_a3_a2_proc_0
      + 545 pi_d_a3_a4_proc_0 + 545 pi_d_a3_a5_proc_0 + 545 pi_d_a3_a6_proc_0
      + 545 pi_d_a3_a7_proc_0 + 545 pi_d_a3_a8_proc_0 + pi_y1_a3
      + pi_y2_a3_proc_0 >= 0
 c15: 939 pi_p_a3_a0 + 939 pi_d_a3_a0_proc_1 + 939 pi_d_a3_a1_proc_1
      + 939 pi_d_a3_a2_proc_1 + 939 pi_d_a3_a4_proc_1 + 939 pi_d_a3_a5_proc_1
      + 939 pi_d_a3_a6_proc_1 + 939 pi_d_a3_a7_proc_1 + 939 pi_d_a3_a8_proc_1
      + 939 pi_d_a3_a9_proc_1 + pi_y1_a3 + pi_y2_a3_proc_1 >= 0
 c16: pi_p_a4_a3 - pi_p_a9_a4 - pi_p_a6_a4 - pi_p_a5_a4 - pi_d_a0_a4_proc_1
      + pi_d_a4_a0_proc_1 - pi_d_a1_a4_proc_2 - pi_d_a1_a4_proc_0
      - pi_d_a1_a4_proc_1 + pi_d_a4_a1_proc_2 + pi_d_a4_a1_proc_0
      + pi_d_a4_a1_proc_1 - pi_d_a2_a4_proc_2 - pi_d_a2_a4_proc_0
      - pi_d_a2_a4_proc_1 + pi_d_a4_a2_proc_2 + pi_d_a4_a2_proc_0
      + pi_d_a4_a2_proc_1 - pi_d_a3_a4_proc_0 - pi_d_a3_a4_proc_1
      + pi_d_a4_a3_proc_0 + pi_d_a4_a3_proc_1 + pi_d_a4_a5_proc_2
      + pi_d_a4_a5_proc_0 + pi_d_a4_a5_proc_1 - pi_d_a5_a4_proc_2
      - pi_d_a5_a4_proc_0 - pi_d_a5_a4_proc_1 + pi_d_a4_a6_proc_2
      + pi_d_a4_a6_proc_0 + pi_d_a4_a6_proc_1 - pi_d_a6_a4_proc_2
      - pi_d_a6_a4_proc_0 - pi_d_a6_a4_proc_1 + pi_d_a4_a7_proc_0
      + pi_d_a4_a7_proc_1 - pi_d_a7_a4_proc_0 - pi_d_a7_a4_proc_1
      + pi_d_a4_a8_proc_0 + pi_d_a4_a8_proc_1 - pi_d_a8_a4_proc_0
      - pi_d_a8_a4_proc_1 + pi_d_a4_a9_proc_2 + pi_d_a4_a9_proc_1
      - pi_d_a9_a4_proc_2 - pi_d_a9_a4_proc_1 >= 0
 c17: 768 pi_p_a4_a3 + 768 pi_d_a4_a1_proc_0 + 768 pi_d_a4_a2_proc_0
      + 768 pi_d_a4_a3_proc_0 + 768 pi_d_a4_a5_proc_0 + 768 pi_d_a4_a6_proc_0
      + 768 pi_d_a4_a7_proc_0 + 768 pi_d_a4_a8_proc_0 + pi_y1_a4
      + pi_y2_a4_proc_0 >= 0
 c18: 1286 pi_p_a4_a3 + 1286 pi_d_a4_a0_proc_1 + 1286 pi_d_a4_a1_proc_1
      + 1286 pi_d_a4_a2_proc_1 + 1286 pi_d_a4_a3_proc_1 + 1286 pi_d_a4_a5_proc_1
      + 1286 pi_d_a4_a6_proc_1 + 1286 pi_d_a4_a7_proc_1 + 1286 pi_d_a4_a8_proc_1
      + 1286 pi_d_a4_a9_proc_1 + pi_y1_a4 + pi_y2_a4_proc_1 >= 0
 c19: 1201 pi_p_a4_a3 + 1201 pi_d_a4_a1_proc_2 + 1201 pi_d_a4_a2_proc_2
      + 1201 pi_d_a4_a5_proc_2 + 1201 pi_d_a4_a6_proc_2 + 1201 pi_d_a4_a9_proc_2
      + pi_y1_a4 + pi_y2_a4_proc_2 >= 0
 c20: - pi_p_a2_a5 + pi_p_a5_a6 + pi_p_a5_a2 + pi_p_a5_a4 - pi_d_a0_a5_proc_1
      + pi_d_a5_a0_proc_1 - pi_d_a1_a5_proc_2 - pi_d_a1_a5_proc_0
      - pi_d_a1_a5_proc_1 + pi_d_a5_a1_proc_2 + pi_d_a5_a1_proc_0
      + pi_d_a5_a1_proc_1 - pi_d_a2_a5_proc_2 - pi_d_a2_a5_proc_0
      - pi_d_a2_a5_proc_1 + pi_d_a5_a2_proc_2 + pi_d_a5_a2_proc_0
      + pi_d_a5_a2_proc_1 - pi_d_a3_a5_proc_0 - pi_d_a3_a5_proc_1
      + pi_d_a5_a3_proc_0 + pi_d_a5_a3_proc_1 - pi_d_a4_a5_proc_2
      - pi_d_a4_a5_proc_0 - pi_d_a4_a5_proc_1 + pi_d_a5_a4_proc_2
      + pi_d_a5_a4_proc_0 + pi_d_a5_a4_proc_1 + pi_d_a5_a6_proc_2
      + pi_d_a5_a6_proc_0 + pi_d_a5_a6_proc_1 - pi_d_a6_a5_proc_2
      - pi_d_a6_a5_proc_0 - pi_d_a6_a5_proc_1 + pi_d_a5_a7_proc_0
      + pi_d_a5_a7_proc_1 - pi_d_a7_a5_proc_0 - pi_d_a7_a5_proc_1
      + pi_d_a5_a8_proc_0 + pi_d_a5_a8_proc_1 - pi_d_a8_a5_proc_0
      - pi_d_a8_a5_proc_1 + pi_d_a5_a9_proc_2 + pi_d_a5_a9_proc_1
      - pi_d_a9_a5_proc_2 - pi_d_a9_a5_proc_1 >= 0
 c21: 305 pi_p_a5_a6 + 305 pi_p_a5_a2 + 305 pi_p_a5_a4 + 305 pi_d_a5_a1_proc_0
      + 305 pi_d_a5_a2_proc_0 + 305 pi_d_a5_a3_proc_0 + 305 pi_d_a5_a4_proc_0
      + 305 pi_d_a5_a6_proc_0 + 305 pi_d_a5_a7_proc_0 + 305 pi_d_a5_a8_proc_0
      + pi_y1_a5 + pi_y2_a5_proc_0 >= 0
 c22: 1005 pi_p_a5_a6 + 1005 pi_p_a5_a2 + 1005 pi_p_a5_a4
      + 1005 pi_d_a5_a0_proc_1 + 1005 pi_d_a5_a1_proc_1 + 1005 pi_d_a5_a2_proc_1
      + 1005 pi_d_a5_a3_proc_1 + 1005 pi_d_a5_a4_proc_1 + 1005 pi_d_a5_a6_proc_1
      + 1005 pi_d_a5_a7_proc_1 + 1005 pi_d_a5_a8_proc_1 + 1005 pi_d_a5_a9_proc_1
      + pi_y1_a5 + pi_y2_a5_proc_1 >= 0
 c23: 1122 pi_p_a5_a6 + 1122 pi_p_a5_a2 + 1122 pi_p_a5_a4
      + 1122 pi_d_a5_a1_proc_2 + 1122 pi_d_a5_a2_proc_2 + 1122 pi_d_a5_a4_proc_2
      + 1122 pi_d_a5_a6_proc_2 + 1122 pi_d_a5_a9_proc_2 + pi_y1_a5
      + pi_y2_a5_proc_2 >= 0
 c24: - pi_p_a5_a6 + pi_p_a6_a4 + pi_p_a6_a0 - pi_d_a0_a6_proc_1
      + pi_d_a6_a0_proc_1 - pi_d_a1_a6_proc_2 - pi_d_a1_a6_proc_0
      - pi_d_a1_a6_proc_1 + pi_d_a6_a1_proc_2 + pi_d_a6_a1_proc_0
      + pi_d_a6_a1_proc_1 - pi_d_a2_a6_proc_2 - pi_d_a2_a6_proc_0
      - pi_d_a2_a6_proc_1 + pi_d_a6_a2_proc_2 + pi_d_a6_a2_proc_0
      + pi_d_a6_a2_proc_1 - pi_d_a3_a6_proc_0 - pi_d_a3_a6_proc_1
      + pi_d_a6_a3_proc_0 + pi_d_a6_a3_proc_1 - pi_d_a4_a6_proc_2
      - pi_d_a4_a6_proc_0 - pi_d_a4_a6_proc_1 + pi_d_a6_a4_proc_2
      + pi_d_a6_a4_proc_0 + pi_d_a6_a4_proc_1 - pi_d_a5_a6_proc_2
      - pi_d_a5_a6_proc_0 - pi_d_a5_a6_proc_1 + pi_d_a6_a5_proc_2
      + pi_d_a6_a5_proc_0 + pi_d_a6_a5_proc_1 + pi_d_a6_a7_proc_0
      + pi_d_a6_a7_proc_1 - pi_d_a7_a6_proc_0 - pi_d_a7_a6_proc_1
      + pi_d_a6_a8_proc_0 + pi_d_a6_a8_proc_1 - pi_d_a8_a6_proc_0
      - pi_d_a8_a6_proc_1 + pi_d_a6_a9_proc_2 + pi_d_a6_a9_proc_1
      - pi_d_a9_a6_proc_2 - pi_d_a9_a6_proc_1 >= 0
 c25: 1222 pi_p_a6_a4 + 1222 pi_p_a6_a0 + 1222 pi_p_a6_a6
      + 1222 pi_d_a6_a1_proc_0 + 1222 pi_d_a6_a2_proc_0 + 1222 pi_d_a6_a3_proc_0
      + 1222 pi_d_a6_a4_proc_0 + 1222 pi_d_a6_a5_proc_0 + 1222 pi_d_a6_a7_proc_0
      + 1222 pi_d_a6_a8_proc_0 + pi_y1_a6 + pi_y2_a6_proc_0 >= 0
 c26: 908 pi_p_a6_a4 + 908 pi_p_a6_a0 + 908 pi_p_a6_a6 + 908 pi_d_a6_a0_proc_1
      + 908 pi_d_a6_a1_proc_1 + 908 pi_d_a6_a2_proc_1 + 908 pi_d_a6_a3_proc_1
      + 908 pi_d_a6_a4_proc_1 + 908 pi_d_a6_a5_proc_1 + 908 pi_d_a6_a7_proc_1
      + 908 pi_d_a6_a8_proc_1 + 908 pi_d_a6_a9_proc_1 + pi_y1_a6
      + pi_y2_a6_proc_1 >= 0
 c27: 911 pi_p_a6_a4 + 911 pi_p_a6_a0 + 911 pi_p_a6_a6 + 911 pi_d_a6_a1_proc_2
      + 911 pi_d_a6_a2_proc_2 + 911 pi_d_a6_a4_proc_2 + 911 pi_d_a6_a5_proc_2
      + 911 pi_d_a6_a9_proc_2 + pi_y1_a6 + pi_y2_a6_proc_2 >= 0
 c28: - pi_p_a2_a7 + pi_p_a7_a9 + pi_p_a7_a8 - pi_d_a0_a7_proc_1
      + pi_d_a7_a0_proc_1 - pi_d_a1_a7_proc_0 - pi_d_a1_a7_proc_1
      + pi_d_a7_a1_proc_0 + pi_d_a7_a1_proc_1 - pi_d_a2_a7_proc_0
      - pi_d_a2_a7_proc_1 + pi_d_a7_a2_proc_0 + pi_d_a7_a2_proc_1
      - pi_d_a3_a7_proc_0 - pi_d_a3_a7_proc_1 + pi_d_a7_a3_proc_0
      + pi_d_a7_a3_proc_1 - pi_d_a4_a7_proc_0 - pi_d_a4_a7_proc_1
      + pi_d_a7_a4_proc_0 + pi_d_a7_a4_proc_1 - pi_d_a5_a7_proc_0
      - pi_d_a5_a7_proc_1 + pi_d_a7_a5_proc_0 + pi_d_a7_a5_proc_1
      - pi_d_a6_a7_proc_0 - pi_d_a6_a7_proc_1 + pi_d_a7_a6_proc_0
      + pi_d_a7_a6_proc_1 + pi_d_a7_a8_proc_0 + pi_d_a7_a8_proc_1
      - pi_d_a8_a7_proc_0 - pi_d_a8_a7_proc_1 + pi_d_a7_a9_proc_1
      - pi_d_a9_a7_proc_1 >= 0
 c29: 622 pi_p_a7_a7 + 622 pi_p_a7_a9 + 622 pi_p_a7_a8 + 622 pi_d_a7_a1_proc_0
      + 622 pi_d_a7_a2_proc_0 + 622 pi_d_a7_a3_proc_0 + 622 pi_d_a7_a4_proc_0
      + 622 pi_d_a7_a5_proc_0 + 622 pi_d_a7_a6_proc_0 + 622 pi_d_a7_a8_proc_0
      + pi_y1_a7 + pi_y2_a7_proc_0 >= 0
 c30: 705 pi_p_a7_a7 + 705 pi_p_a7_a9 + 705 pi_p_a7_a8 + 705 pi_d_a7_a0_proc_1
      + 705 pi_d_a7_a1_proc_1 + 705 pi_d_a7_a2_proc_1 + 705 pi_d_a7_a3_proc_1
      + 705 pi_d_a7_a4_proc_1 + 705 pi_d_a7_a5_proc_1 + 705 pi_d_a7_a6_proc_1
      + 705 pi_d_a7_a8_proc_1 + 705 pi_d_a7_a9_proc_1 + pi_y1_a7
      + pi_y2_a7_proc_1 >= 0
 c31: pi_p_a8_a1 + pi_p_a8_a9 - pi_p_a7_a8 - pi_d_a0_a8_proc_1
      + pi_d_a8_a0_proc_1 - pi_d_a1_a8_proc_0 - pi_d_a1_a8_proc_1
      + pi_d_a8_a1_proc_0 + pi_d_a8_a1_proc_1 - pi_d_a2_a8_proc_0
      - pi_d_a2_a8_proc_1 + pi_d_a8_a2_proc_0 + pi_d_a8_a2_proc_1
      - pi_d_a3_a8_proc_0 - pi_d_a3_a8_proc_1 + pi_d_a8_a3_proc_0
      + pi_d_a8_a3_proc_1 - pi_d_a4_a8_proc_0 - pi_d_a4_a8_proc_1
      + pi_d_a8_a4_proc_0 + pi_d_a8_a4_proc_1 - pi_d_a5_a8_proc_0
      - pi_d_a5_a8_proc_1 + pi_d_a8_a5_proc_0 + pi_d_a8_a5_proc_1
      - pi_d_a6_a8_proc_0 - pi_d_a6_a8_proc_1 + pi_d_a8_a6_proc_0
      + pi_d_a8_a6_proc_1 - pi_d_a7_a8_proc_0 - pi_d_a7_a8_proc_1
      + pi_d_a8_a7_proc_0 + pi_d_a8_a7_proc_1 + pi_d_a8_a9_proc_1
      - pi_d_a9_a8_proc_1 >= 0
 c32: 879 pi_p_a8_a1 + 879 pi_p_a8_a9 + 879 pi_d_a8_a1_proc_0
      + 879 pi_d_a8_a2_proc_0 + 879 pi_d_a8_a3_proc_0 + 879 pi_d_a8_a4_proc_0
      + 879 pi_d_a8_a5_proc_0 + 879 pi_d_a8_a6_proc_0 + 879 pi_d_a8_a7_proc_0
      + pi_y1_a8 + pi_y2_a8_proc_0 >= 0
 c33: 811 pi_p_a8_a1 + 811 pi_p_a8_a9 + 811 pi_d_a8_a0_proc_1
      + 811 pi_d_a8_a1_proc_1 + 811 pi_d_a8_a2_proc_1 + 811 pi_d_a8_a3_proc_1
      + 811 pi_d_a8_a4_proc_1 + 811 pi_d_a8_a5_proc_1 + 811 pi_d_a8_a6_proc_1
      + 811 pi_d_a8_a7_proc_1 + 811 pi_d_a8_a9_proc_1 + pi_y1_a8
      + pi_y2_a8_proc_1 >= 0
 c34: pi_p_a9_a4 - pi_p_a8_a9 - pi_p_a7_a9 - pi_d_a0_a9_proc_1
      + pi_d_a9_a0_proc_1 - pi_d_a1_a9_proc_2 - pi_d_a1_a9_proc_1
      + pi_d_a9_a1_proc_2 + pi_d_a9_a1_proc_1 - pi_d_a2_a9_proc_2
      - pi_d_a2_a9_proc_1 + pi_d_a9_a2_proc_2 + pi_d_a9_a2_proc_1
      - pi_d_a3_a9_proc_1 + pi_d_a9_a3_proc_1 - pi_d_a4_a9_proc_2
      - pi_d_a4_a9_proc_1 + pi_d_a9_a4_proc_2 + pi_d_a9_a4_proc_1
      - pi_d_a5_a9_proc_2 - pi_d_a5_a9_proc_1 + pi_d_a9_a5_proc_2
      + pi_d_a9_a5_proc_1 - pi_d_a6_a9_proc_2 - pi_d_a6_a9_proc_1
      + pi_d_a9_a6_proc_2 + pi_d_a9_a6_proc_1 - pi_d_a7_a9_proc_1
      + pi_d_a9_a7_proc_1 - pi_d_a8_a9_proc_1 + pi_d_a9_a8_proc_1 >= 0
 c35: 677 pi_p_a9_a4 + 677 pi_d_a9_a0_proc_1 + 677 pi_d_a9_a1_proc_1
      + 677 pi_d_a9_a2_proc_1 + 677 pi_d_a9_a3_proc_1 + 677 pi_d_a9_a4_proc_1
      + 677 pi_d_a9_a5_proc_1 + 677 pi_d_a9_a6_proc_1 + 677 pi_d_a9_a7_proc_1
      + 677 pi_d_a9_a8_proc_1 + pi_y1_a9 + pi_y2_a9_proc_1 >= 0
 c36: 1128 pi_p_a9_a4 + 1128 pi_d_a9_a1_proc_2 + 1128 pi_d_a9_a2_proc_2
      + 1128 pi_d_a9_a4_proc_2 + 1128 pi_d_a9_a5_proc_2 + 1128 pi_d_a9_a6_proc_2
      + pi_y1_a9 + pi_y2_a9_proc_2 >= 0

Bounds
       pi_y1_a0 Free
       pi_y1_a1 Free
       pi_y1_a2 Free
       pi_y1_a3 Free
       pi_y1_a4 Free
       pi_y1_a5 Free
       pi_y1_a6 Free
       pi_y1_a7 Free
       pi_y1_a8 Free
       pi_y1_a9 Free
End
