benchmark/results/graph__10-1000-0.10-03_3/graph__10-1000-0.10-03_3_QuintonOs_Benders_aux.txt
solution for: Quinton Bounded Benders_auxiliary_sub
objective: 0.207442
status: OPTIMAL_SOLUTION(2)
pi_p_a3_a0=0.000
pi_p_a4_a3=0.000
pi_p_a9_a4=0.000
pi_d_a0_a9_proc_1=0.000
pi_y1_a0=-0.353
pi_y1_a3=-0.177
pi_y1_a4=-0.250
pi_y1_a9=-0.220
